4 
5  23 38 53 
6  08 23 38 53 
7  08 23 38 53 
8  08 23 38 53 
9  08 23 40 55 
10  10 25 40 55 
11  10 25 40 55 
12  10 25 40 55 
13  10 25 40 55 
14  10 25 37 52 
15  08 23 38 53 
16  08 23 38 53 
17  08 23 38 53 
18  08 23 38 53 
19  11 25 37 52 
20  07 
21 
